p cnf 90 302
1 2 3 4 5 6 7 8 9 10 11 0
29 30 31 32 33 34 35 36 0
-1 -12 0
-1 -20 0
-1 -37 0
-1 -52 0
-1 -61 0
-1 -72 0
-1 -80 0
-12 -20 0
-12 -37 0
-12 -52 0
-12 -61 0
-12 -72 0
-12 -80 0
-20 -37 0
-20 -52 0
-20 -61 0
-20 -72 0
-20 -80 0
-37 -52 0
-37 -61 0
-37 -72 0
-37 -80 0
-52 -61 0
-52 -72 0
-52 -80 0
-61 -72 0
-61 -80 0
-72 -80 0
-2 -21 0
-2 -29 0
-2 -38 0
-2 -43 0
-2 -53 0
-2 -73 0
-2 -81 0
-21 -29 0
-21 -38 0
-21 -43 0
-21 -53 0
-21 -73 0
-21 -81 0
-29 -38 0
-29 -43 0
-29 -53 0
-29 -73 0
-29 -81 0
-38 -43 0
-38 -53 0
-38 -73 0
-38 -81 0
-43 -53 0
-43 -73 0
-43 -81 0
-53 -73 0
-53 -81 0
-73 -81 0
-3 -13 0
-3 -22 0
-3 -39 0
-3 -44 0
-3 -62 0
-3 -82 0
-13 -22 0
-13 -39 0
-13 -44 0
-13 -62 0
-13 -82 0
-22 -39 0
-22 -44 0
-22 -62 0
-22 -82 0
-39 -44 0
-39 -62 0
-39 -82 0
-44 -62 0
-44 -82 0
-62 -82 0
-4 -14 0
-4 -23 0
-4 -30 0
-4 -40 0
-4 -45 0
-4 -63 0
-4 -83 0
-14 -23 0
-14 -30 0
-14 -40 0
-14 -45 0
-14 -63 0
-14 -83 0
-23 -30 0
-23 -40 0
-23 -45 0
-23 -63 0
-23 -83 0
-30 -40 0
-30 -45 0
-30 -63 0
-30 -83 0
-40 -45 0
-40 -63 0
-40 -83 0
-45 -63 0
-45 -83 0
-63 -83 0
-5 -15 0
-5 -31 0
-5 -41 0
-5 -46 0
-5 -54 0
-5 -64 0
-5 -74 0
-5 -84 0
-15 -31 0
-15 -41 0
-15 -46 0
-15 -54 0
-15 -64 0
-15 -74 0
-15 -84 0
-31 -41 0
-31 -46 0
-31 -54 0
-31 -64 0
-31 -74 0
-31 -84 0
-41 -46 0
-41 -54 0
-41 -64 0
-41 -74 0
-41 -84 0
-46 -54 0
-46 -64 0
-46 -74 0
-46 -84 0
-54 -64 0
-54 -74 0
-54 -84 0
-64 -74 0
-64 -84 0
-74 -84 0
-6 -32 0
-6 -55 0
-6 -65 0
-6 -85 0
-32 -55 0
-32 -65 0
-32 -85 0
-55 -65 0
-55 -85 0
-65 -85 0
-7 -24 0
-7 -33 0
-7 -47 0
-7 -56 0
-7 -66 0
-7 -75 0
-7 -86 0
-24 -33 0
-24 -47 0
-24 -56 0
-24 -66 0
-24 -75 0
-24 -86 0
-33 -47 0
-33 -56 0
-33 -66 0
-33 -75 0
-33 -86 0
-47 -56 0
-47 -66 0
-47 -75 0
-47 -86 0
-56 -66 0
-56 -75 0
-56 -86 0
-66 -75 0
-66 -86 0
-75 -86 0
-16 -25 0
-16 -34 0
-16 -48 0
-16 -57 0
-16 -67 0
-16 -76 0
-16 -87 0
-25 -34 0
-25 -48 0
-25 -57 0
-25 -67 0
-25 -76 0
-25 -87 0
-34 -48 0
-34 -57 0
-34 -67 0
-34 -76 0
-34 -87 0
-48 -57 0
-48 -67 0
-48 -76 0
-48 -87 0
-57 -67 0
-57 -76 0
-57 -87 0
-67 -76 0
-67 -87 0
-76 -87 0
-8 -17 0
-8 -26 0
-8 -49 0
-8 -58 0
-8 -68 0
-8 -77 0
-17 -26 0
-17 -49 0
-17 -58 0
-17 -68 0
-17 -77 0
-26 -49 0
-26 -58 0
-26 -68 0
-26 -77 0
-49 -58 0
-49 -68 0
-49 -77 0
-58 -68 0
-58 -77 0
-68 -77 0
-9 -18 0
-9 -27 0
-9 -42 0
-9 -69 0
-9 -88 0
-18 -27 0
-18 -42 0
-18 -69 0
-18 -88 0
-27 -42 0
-27 -69 0
-27 -88 0
-42 -69 0
-42 -88 0
-69 -88 0
-10 -35 0
-10 -50 0
-10 -59 0
-10 -70 0
-10 -78 0
-10 -89 0
-35 -50 0
-35 -59 0
-35 -70 0
-35 -78 0
-35 -89 0
-50 -59 0
-50 -70 0
-50 -78 0
-50 -89 0
-59 -70 0
-59 -78 0
-59 -89 0
-70 -78 0
-70 -89 0
-78 -89 0
-11 -19 0
-11 -28 0
-11 -36 0
-11 -51 0
-11 -60 0
-11 -71 0
-11 -79 0
-11 -90 0
-19 -28 0
-19 -36 0
-19 -51 0
-19 -60 0
-19 -71 0
-19 -79 0
-19 -90 0
-28 -36 0
-28 -51 0
-28 -60 0
-28 -71 0
-28 -79 0
-28 -90 0
-36 -51 0
-36 -60 0
-36 -71 0
-36 -79 0
-36 -90 0
-51 -60 0
-51 -71 0
-51 -79 0
-51 -90 0
-60 -71 0
-60 -79 0
-60 -90 0
-71 -79 0
-71 -90 0
-79 -90 0
